n = 9;
k = 124;
price = [25, 15, 22, 20, 18, 21, 25, 16, 17];
m = 20;
buy = [2, 5, 2, 5, 5, 5, 3, 3, 6, 3, 3, 3, 2, 3, 2, 2, 4, 2, 6, 3];
free = [1, 2, 1, 2, 2, 2, 1, 1, 2, 1, 1, 1, 1, 1, 1, 1, 2, 1, 3, 1];
